mixintcount/benchmarks/random_v2l/8_8_63.in
32 10
#	x1	x2	x3	x4	x5	x6	x7	x8;		0 = Real; 1 = Integer
	1	1	1	1	1	1	1	1
1	1	3	-9	-1	2	-3	-2	9	36
1	3	-2	2	2	-3	-7	-4	1	57
1	-6	9	-2	0	-9	6	8	-7	-43
1	1	9	7	-8	-2	-1	-9	5	-20
1	-2	-7	5	-2	6	-8	9	-4	45
1	-9	2	8	4	4	4	-8	-7	-36
1	6	-10	9	-4	0	6	-8	0	-17
1	-1	1	8	-3	7	9	-9	-5	-23
1	-9	-9	9	-4	-10	0	-6	4	-52
1	8	4	-6	3	0	-6	0	4	63
1	-5	7	-9	-4	-5	2	-9	1	5
1	-10	0	2	3	0	3	1	6	28
1	9	8	-6	-9	6	7	-5	-4	24
1	-3	4	8	10	7	4	9	-8	-7
1	1	-6	-4	10	-8	4	-1	5	-42
1	10	-7	8	0	-9	5	2	-10	43
1	1	0	0	0	0	0	0	0	63
1	-1	0	0	0	0	0	0	0	63
1	0	1	0	0	0	0	0	0	63
1	0	-1	0	0	0	0	0	0	63
1	0	0	1	0	0	0	0	0	63
1	0	0	-1	0	0	0	0	0	63
1	0	0	0	1	0	0	0	0	63
1	0	0	0	-1	0	0	0	0	63
1	0	0	0	0	1	0	0	0	63
1	0	0	0	0	-1	0	0	0	63
1	0	0	0	0	0	1	0	0	63
1	0	0	0	0	0	-1	0	0	63
1	0	0	0	0	0	0	1	0	63
1	0	0	0	0	0	0	-1	0	63
1	0	0	0	0	0	0	0	1	63
1	0	0	0	0	0	0	0	-1	63
